p tw 126 133
1 2
2 39
3 14
4 5
5 6
6 7
7 8
8 9
9 10
10 11
11 12
12 13
13 15
14 25
15 16
16 17
17 18
18 19
19 20
20 21
21 22
22 23
23 24
24 26
25 32
26 85
27 28
28 29
29 30
30 31
32 33
33 34
34 35
35 36
36 37
37 38
38 40
39 50
40 41
41 42
42 43
43 44
43 48
44 45
45 46
46 47
47 48
47 63
48 49
49 51
50 61
51 52
52 53
53 54
54 55
55 56
56 57
57 58
58 59
59 60
60 62
61 72
62 30
63 64
64 65
65 66
66 67
67 68
68 69
69 70
70 71
71 73
72 83
73 74
74 75
75 76
76 77
77 78
78 79
79 80
80 81
81 82
82 84
83 94
83 3
84 85
85 86
86 87
87 88
88 89
89 90
89 93
90 91
91 92
92 93
92 96
93 95
94 105
95 30
96 97
97 98
98 99
99 100
100 101
101 102
102 103
103 104
104 106
104 108
105 116
105 88
106 107
107 30
108 109
109 110
110 111
110 85
111 112
112 113
113 114
114 115
115 117
116 27
117 118
118 119
119 120
120 121
121 122
122 123
123 124
124 125
125 126
126 4
